379 398
409 428
439 458
469 488
499 518
529 548
559 578
589 608
619 638
649 668
679 698
709 728
739 758
769 788
799 818
829 848
859 878
889 908
919 938
949 968
979 998
1009 1028
1039 1058
1069 1088
1099 1118
1129 1148
1159 1178
1189 1208
1219 1238
1249 1268
1279 1298
1309 1328
1339 1358
1369 1388
1399 1418
1429 1448
1462 1481